353631.0
3768
0 2 3 5 7 8 9 11 13 14 15 16 18 19 20 22 23 24 25 26 27 28 31 33 34 36 37 40 42 43 44 45 46 48 49 50 51 52 53 55 57 63 64 67 68 69 70 71 73 74 77 79 81 83 84 86 88 89 91 92 93 94 95 96 97 98 99 100 101 102 103 104 105 107 108 109 110 112 114 115 116 117 121 122 123 124 125 127 128 129 130 131 132 133 134 135 136 137 139 140 141 142 143 144 145 146 148 149 151 154 155 156 158 160 161 162 163 164 165 167 168 170 171 172 174 175 176 179 180 181 182 183 185 186 188 189 190 191 192 193 194 195 196 197 198 